NAME: tsp30-6
TYPE: TSP
DIMENSION: 30
EDGE_WEIGHT_TYPE: EUC_2D
NODE_COORD_SECTION
0 66 28
1 24 52
2 37 98
3 98 47
4 34 41
5 10 53
6 82 93
7 83 20
8 61 11
9 27 74
10 5 27
11 17 84
12 13 45
13 28 60
14 67 7
15 89 1
16 65 42
17 55 1
18 54 96
19 40 81
20 45 6
21 85 2
22 77 99
23 37 58
24 75 48
25 97 36
26 67 76
27 50 56
28 73 51
29 75 62
EOF